Gurobi Optimizer version 9.0.1 build v9.0.1rc0 (linux64)
Optimize a model with 14733 rows, 364417 columns and 1777917 nonzeros
Model fingerprint: 0x19459d47
Coefficient statistics:
  Matrix range     [1e+00, 3e+04]
  Objective range  [3e-03, 5e-03]
  Bounds range     [1e+00, 1e+00]
  RHS range        [1e+00, 9e+04]
Presolve removed 256 rows and 234 columns
Presolve time: 1.87s
Presolved: 14477 rows, 364183 columns, 1413835 nonzeros
Ordering time: 1.27s

Barrier statistics:
 AA' NZ     : 6.814e+05
 Factor NZ  : 6.015e+06 (roughly 200 MBytes of memory)
 Factor Ops : 4.233e+09 (less than 1 second per iteration)
 Threads    : 1

                  Objective                Residual
Iter       Primal          Dual         Primal    Dual     Compl     Time
   0  -8.78560371e+04 -1.70822463e+03  4.54e+07 5.00e-03  3.44e+01     4s
   1  -6.63230121e+03 -1.94748648e+03  3.43e+06 9.71e-17  2.63e+00     5s
   2  -3.11965857e+02 -1.88522948e+03  1.61e+05 1.01e-16  1.26e-01     6s
   3  -5.17032064e+01 -1.45143211e+03  2.66e+04 2.91e-16  2.22e-02     6s
   4  -6.44425705e+00 -4.32117709e+02  3.20e+03 4.16e-16  3.01e-03     7s
   5  -9.07665237e-01 -1.93890400e+02  2.66e+02 1.98e-15  5.28e-04     8s
   6  -5.42647714e-01 -8.57002781e+01  1.15e+02 9.23e-16  2.11e-04     9s
   7  -3.50920102e-01 -5.14684568e+01  6.01e+01 1.75e-15  1.12e-04     9s
   8  -3.21317438e-01 -4.68528952e+01  5.18e+01 2.06e-15  9.70e-05    10s
   9  -2.63581932e-01 -3.71694823e+01  3.55e+01 2.07e-15  7.21e-05    10s
  10  -2.52340914e-01 -3.66151088e+01  3.24e+01 2.46e-15  6.93e-05    11s
  11  -2.22380090e-01 -3.47727731e+01  2.41e+01 2.47e-15  6.17e-05    12s
  12  -1.92337708e-01 -2.06915572e+01  1.56e+01 1.95e-15  3.60e-05    12s
  13  -1.62459795e-01 -1.52977448e+01  6.72e+00 1.84e-15  2.37e-05    13s
  14  -1.44876680e-01 -7.90420083e+00  1.72e+00 1.46e-15  1.12e-05    14s
  15  -1.40665659e-01 -2.79567218e+00  4.75e-01 7.16e-16  3.71e-06    14s
  16  -1.39898393e-01 -1.63742322e+00  2.05e-04 4.68e-16  2.06e-06    15s
  17  -1.41103336e-01 -5.02118522e-01  5.23e-06 1.99e-16  4.96e-07    16s
  18  -1.42642694e-01 -3.56033991e-01  7.46e-07 1.11e-16  2.93e-07    16s
  19  -1.43975220e-01 -2.90804525e-01  2.64e-07 9.31e-17  2.02e-07    17s
  20  -1.46094190e-01 -2.45138297e-01  2.00e-07 6.40e-17  1.36e-07    18s
  21  -1.48315655e-01 -2.27419883e-01  1.53e-07 5.55e-17  1.09e-07    18s
  22  -1.49687606e-01 -2.20685760e-01  1.33e-07 4.94e-17  9.75e-08    19s
  23  -1.50069955e-01 -2.11660077e-01  1.26e-07 4.51e-17  8.46e-08    20s
  24  -1.52233548e-01 -2.04412564e-01  9.35e-08 3.99e-17  7.16e-08    20s
  25  -1.53641842e-01 -1.99842881e-01  7.84e-08 4.16e-17  6.34e-08    21s
  26  -1.53762332e-01 -1.95749480e-01  7.72e-08 3.47e-17  5.76e-08    22s
  27  -1.56331381e-01 -1.88554839e-01  5.10e-08 3.04e-17  4.42e-08    22s
  28  -1.56661734e-01 -1.86017354e-01  4.87e-08 2.66e-17  4.03e-08    23s
  29  -1.58523776e-01 -1.81317725e-01  3.77e-08 2.27e-17  3.13e-08    24s
  30  -1.61207460e-01 -1.76905508e-01  2.28e-08 1.99e-17  2.16e-08    25s
  31  -1.62221162e-01 -1.75003512e-01  1.95e-08 1.99e-17  1.75e-08    25s
  32  -1.62914669e-01 -1.74121678e-01  1.77e-08 1.65e-17  1.54e-08    26s
  33  -1.64761122e-01 -1.73030063e-01  1.23e-08 1.60e-17  1.14e-08    27s
  34  -1.66181059e-01 -1.72608278e-01  9.28e-09 1.73e-17  8.82e-09    27s
  35  -1.67083112e-01 -1.72151001e-01  7.44e-09 1.19e-14  6.96e-09    28s
  36  -1.67706332e-01 -1.71831345e-01  6.13e-09 3.02e-13  5.66e-09    29s
  37  -1.68181616e-01 -1.71594787e-01  5.18e-09 1.56e-12  4.69e-09    29s
  38  -1.68634629e-01 -1.71443043e-01  4.18e-09 1.39e-12  3.86e-09    30s
  39  -1.68990030e-01 -1.71429031e-01  3.47e-09 1.40e-12  3.35e-09    31s
  40  -1.69662708e-01 -1.71304001e-01  2.33e-09 2.40e-12  2.25e-09    31s
  41  -1.70150609e-01 -1.71227481e-01  1.54e-09 2.50e-12  1.48e-09    32s
  42  -1.70469875e-01 -1.71170979e-01  9.92e-10 2.44e-12  9.63e-10    33s
  43  -1.70718148e-01 -1.71143273e-01  5.93e-10 2.21e-12  5.84e-10    33s
  44  -1.70909700e-01 -1.71110092e-01  2.89e-10 1.38e-12  2.75e-10    34s
  45  -1.70980999e-01 -1.71101979e-01  1.78e-10 8.98e-13  1.66e-10    34s
  46  -1.71055780e-01 -1.71098602e-01  6.07e-11 5.59e-13  5.88e-11    35s
  47  -1.71074589e-01 -1.71097845e-01  3.28e-11 1.61e-12  3.19e-11    36s
  48  -1.71091131e-01 -1.71097079e-01  7.90e-12 2.40e-12  8.17e-12    36s
  49  -1.71094544e-01 -1.71096788e-01  3.09e-12 5.27e-12  3.08e-12    37s
  50  -1.71096443e-01 -1.71096761e-01  1.51e-10 1.24e-12  4.36e-13    37s
  51  -1.71096758e-01 -1.71096759e-01  3.29e-10 2.24e-12  1.33e-15    38s

Barrier solved model in 51 iterations and 37.99 seconds
Optimal objective -1.71096758e-01

Solver name: Gurobi
Solve time: 38.130603545
Termination status: OPTIMAL
Result count: 1
Primal status: FEASIBLE_POINT
Dual status: FEASIBLE_POINT
